unsat
(:SPACER-conj                         6
 :SPACER-inductive-gen                17
 :SPACER-inductive-gen-weaken-fail    24
 :SPACER-inductive-level              8
 :SPACER-max-depth                    13
 :SPACER-max-query-lvl                13
 :SPACER-non-local-gen                30
 :SPACER-num-active-lemmas            19
 :SPACER-num-ctp-blocked              37
 :SPACER-num-invariants               8
 :SPACER-num-is_invariant             58
 :SPACER-num-lemmas                   61
 :SPACER-num-pobs                     14
 :SPACER-num-propagations             3
 :SPACER-num-queries                  39
 :added-eqs                           1596
 :arith-assert-diseq                  896
 :arith-assert-lower                  5126
 :arith-assert-upper                  3838
 :arith-bound-prop                    190
 :arith-conflicts                     38
 :arith-eq-adapter                    122
 :arith-fixed-eqs                     150
 :arith-num-rows                      30
 :arith-offset-eqs                    94
 :arith-pivots                        304
 :arith-row-summations                1126
 :arith-tableau-max-columns           66
 :arith-tableau-max-rows              30
 :conflicts                           488
 :decisions                           1618
 :del-clause                          530
 :final-checks                        162
 :iuc_solver.num_proxies              37
 :max-memory                          31.60
 :memory                              31.16
 :minimized-lits                      70
 :mk-bool-var                         2264
 :mk-clause                           1188
 :num-allocs                          24771501
 :num-checks                          504
 :pool_solver.checks                  252
 :pool_solver.checks.sat              78
 :pool_solver.checks.undef            3
 :propagations                        19522
 :rlimit-count                        97528
 :time                                0.15
 :time.iuc_solver.get_iuc             0.03
 :time.iuc_solver.get_iuc.hyp_reduce1 0.01
 :time.iuc_solver.get_iuc.hyp_reduce2 0.01
 :time.iuc_solver.get_iuc.learn_core  0.01
 :time.pool_solver.proof              0.01
 :time.pool_solver.smt.total          0.04
 :time.pool_solver.smt.total.sat      0.01
 :time.spacer.ctp                     0.00
 :time.spacer.init_rules              0.00
 :time.spacer.mbp                     0.00
 :time.spacer.solve                   0.14
 :time.spacer.solve.propagate         0.01
 :time.spacer.solve.reach             0.12
 :time.spacer.solve.reach.children    0.01
 :time.spacer.solve.reach.cluster     0.01
 :time.spacer.solve.reach.gen.global  0.01
 :time.spacer.solve.reach.gen.ind     0.01
 :time.spacer.solve.reach.is-reach    0.00)
(:max-memory   31.60
 :memory       31.16
 :num-allocs   24771501
 :rlimit-count 97528
 :time         0.15
 :total-time   0.17)
